predicate cumulativeChoco(array [int] of var int: s,array [int] of var int: d,array [int] of var int: r,var int: b);
array [1..2] of int: X_INTRODUCED_33_ = [1,-1];
array [1..20] of int: X_INTRODUCED_67_ = [10,9,1,1,3,2,3,4,8,6,3,7,2,2,1,7,1,6,10,6];
array [1..20] of int: X_INTRODUCED_68_ = [6,6,9,1,2,6,7,6,1,8,7,9,5,10,5,2,2,2,6,10];
array [1..24] of int: X_INTRODUCED_70_ = [10,3,9,9,5,5,4,4,3,3,10,9,6,3,3,8,1,6,8,4,8,7,8,4];
array [1..24] of int: X_INTRODUCED_71_ = [6,6,5,10,2,7,1,6,1,10,8,5,9,5,10,3,5,2,4,8,6,2,10,9];
array [1..25] of int: X_INTRODUCED_73_ = [4,2,8,5,6,2,4,8,4,5,9,10,3,7,2,4,5,7,5,6,7,7,10,4,1];
array [1..25] of int: X_INTRODUCED_74_ = [6,9,1,5,10,2,6,1,6,1,10,5,7,9,5,10,5,2,4,8,2,2,6,2,10];
array [1..22] of int: X_INTRODUCED_76_ = [2,6,4,10,2,8,5,9,4,8,7,3,3,8,8,4,3,4,1,3,6,2];
array [1..22] of int: X_INTRODUCED_77_ = [9,1,5,6,7,6,1,10,8,5,10,3,5,2,4,8,2,2,6,2,10,9];
array [1..54] of int: X_INTRODUCED_242_ = [1,-5,-4,-2,-2,-4,-2,-2,-1,-5,-5,-2,-2,-2,-2,-1,-1,-1,-3,-3,-5,-5,-1,-4,-5,-2,-4,-1,-5,-5,-3,-4,-2,-3,-4,-2,-2,-4,-3,-2,-4,-5,-2,-1,-5,-4,-5,-1,-5,-3,-1,-3,-4,-5];
var 0..58: X_INTRODUCED_0_;
var 0..58: X_INTRODUCED_1_;
var 0..58: X_INTRODUCED_2_;
var 0..58: X_INTRODUCED_3_;
var 0..58: X_INTRODUCED_4_;
var 0..58: X_INTRODUCED_5_;
var 0..58: X_INTRODUCED_6_;
var 0..58: X_INTRODUCED_7_;
var 0..58: X_INTRODUCED_8_;
var 0..58: X_INTRODUCED_9_;
var 0..58: X_INTRODUCED_10_;
var 0..58: X_INTRODUCED_11_;
var 0..58: X_INTRODUCED_12_;
var 0..58: X_INTRODUCED_13_;
var 0..58: X_INTRODUCED_14_;
var 0..58: X_INTRODUCED_15_;
var 0..58: X_INTRODUCED_16_;
var 0..58: X_INTRODUCED_17_;
var 0..58: X_INTRODUCED_18_;
var 0..58: X_INTRODUCED_19_;
var 0..58: X_INTRODUCED_20_;
var 0..58: X_INTRODUCED_21_;
var 0..58: X_INTRODUCED_22_;
var 0..58: X_INTRODUCED_23_;
var 0..58: X_INTRODUCED_24_;
var 0..58: X_INTRODUCED_25_;
var 0..58: X_INTRODUCED_26_;
var 0..58: X_INTRODUCED_27_;
var 0..58: X_INTRODUCED_28_;
var 0..58: X_INTRODUCED_29_;
var 0..58: X_INTRODUCED_30_;
var 0..58: X_INTRODUCED_31_;
var 0..4000: objective:: output_var:: is_defined_var;
var bool: X_INTRODUCED_65_ ::var_is_introduced :: is_defined_var;
var bool: X_INTRODUCED_66_ ::var_is_introduced :: is_defined_var;
var -1..57: X_INTRODUCED_80_ ::var_is_introduced :: is_defined_var;
var 0..57: X_INTRODUCED_81_ ::var_is_introduced :: is_defined_var;
var -57..1: X_INTRODUCED_83_ ::var_is_introduced :: is_defined_var;
var 0..1: X_INTRODUCED_84_ ::var_is_introduced :: is_defined_var;
var -30..28: X_INTRODUCED_87_ ::var_is_introduced :: is_defined_var;
var 0..28: X_INTRODUCED_88_ ::var_is_introduced :: is_defined_var;
var -28..30: X_INTRODUCED_89_ ::var_is_introduced :: is_defined_var;
var 0..30: X_INTRODUCED_90_ ::var_is_introduced :: is_defined_var;
var -51..7: X_INTRODUCED_93_ ::var_is_introduced :: is_defined_var;
var 0..7: X_INTRODUCED_94_ ::var_is_introduced :: is_defined_var;
var 0..58: X_INTRODUCED_97_ ::var_is_introduced :: is_defined_var;
var -58..0: X_INTRODUCED_98_ ::var_is_introduced :: is_defined_var;
var -17..41: X_INTRODUCED_102_ ::var_is_introduced :: is_defined_var;
var 0..41: X_INTRODUCED_103_ ::var_is_introduced :: is_defined_var;
var -16..42: X_INTRODUCED_106_ ::var_is_introduced :: is_defined_var;
var 0..42: X_INTRODUCED_107_ ::var_is_introduced :: is_defined_var;
var -42..16: X_INTRODUCED_108_ ::var_is_introduced :: is_defined_var;
var 0..16: X_INTRODUCED_109_ ::var_is_introduced :: is_defined_var;
var -24..34: X_INTRODUCED_111_ ::var_is_introduced :: is_defined_var;
var 0..34: X_INTRODUCED_112_ ::var_is_introduced :: is_defined_var;
var -34..24: X_INTRODUCED_113_ ::var_is_introduced :: is_defined_var;
var 0..24: X_INTRODUCED_114_ ::var_is_introduced :: is_defined_var;
var -37..21: X_INTRODUCED_116_ ::var_is_introduced :: is_defined_var;
var 0..21: X_INTRODUCED_117_ ::var_is_introduced :: is_defined_var;
var -8..50: X_INTRODUCED_119_ ::var_is_introduced :: is_defined_var;
var 0..50: X_INTRODUCED_120_ ::var_is_introduced :: is_defined_var;
var -50..8: X_INTRODUCED_121_ ::var_is_introduced :: is_defined_var;
var 0..8: X_INTRODUCED_122_ ::var_is_introduced :: is_defined_var;
var -16..42: X_INTRODUCED_125_ ::var_is_introduced :: is_defined_var;
var 0..42: X_INTRODUCED_126_ ::var_is_introduced :: is_defined_var;
var -42..16: X_INTRODUCED_127_ ::var_is_introduced :: is_defined_var;
var 0..16: X_INTRODUCED_128_ ::var_is_introduced :: is_defined_var;
var -28..30: X_INTRODUCED_130_ ::var_is_introduced :: is_defined_var;
var 0..30: X_INTRODUCED_131_ ::var_is_introduced :: is_defined_var;
var -15..43: X_INTRODUCED_133_ ::var_is_introduced :: is_defined_var;
var 0..43: X_INTRODUCED_134_ ::var_is_introduced :: is_defined_var;
var -43..15: X_INTRODUCED_135_ ::var_is_introduced :: is_defined_var;
var 0..15: X_INTRODUCED_136_ ::var_is_introduced :: is_defined_var;
var -16..42: X_INTRODUCED_139_ ::var_is_introduced :: is_defined_var;
var 0..42: X_INTRODUCED_140_ ::var_is_introduced :: is_defined_var;
var -42..16: X_INTRODUCED_141_ ::var_is_introduced :: is_defined_var;
var 0..16: X_INTRODUCED_142_ ::var_is_introduced :: is_defined_var;
var -18..40: X_INTRODUCED_145_ ::var_is_introduced :: is_defined_var;
var 0..40: X_INTRODUCED_146_ ::var_is_introduced :: is_defined_var;
var -40..18: X_INTRODUCED_147_ ::var_is_introduced :: is_defined_var;
var 0..18: X_INTRODUCED_148_ ::var_is_introduced :: is_defined_var;
var -32..26: X_INTRODUCED_150_ ::var_is_introduced :: is_defined_var;
var 0..26: X_INTRODUCED_151_ ::var_is_introduced :: is_defined_var;
var -26..32: X_INTRODUCED_152_ ::var_is_introduced :: is_defined_var;
var 0..32: X_INTRODUCED_153_ ::var_is_introduced :: is_defined_var;
var -30..28: X_INTRODUCED_156_ ::var_is_introduced :: is_defined_var;
var 0..28: X_INTRODUCED_157_ ::var_is_introduced :: is_defined_var;
var -28..30: X_INTRODUCED_158_ ::var_is_introduced :: is_defined_var;
var 0..30: X_INTRODUCED_159_ ::var_is_introduced :: is_defined_var;
var -21..37: X_INTRODUCED_161_ ::var_is_introduced :: is_defined_var;
var 0..37: X_INTRODUCED_162_ ::var_is_introduced :: is_defined_var;
var -37..21: X_INTRODUCED_163_ ::var_is_introduced :: is_defined_var;
var 0..21: X_INTRODUCED_164_ ::var_is_introduced :: is_defined_var;
var -26..32: X_INTRODUCED_167_ ::var_is_introduced :: is_defined_var;
var 0..32: X_INTRODUCED_168_ ::var_is_introduced :: is_defined_var;
var -30..28: X_INTRODUCED_171_ ::var_is_introduced :: is_defined_var;
var 0..28: X_INTRODUCED_172_ ::var_is_introduced :: is_defined_var;
var -28..30: X_INTRODUCED_173_ ::var_is_introduced :: is_defined_var;
var 0..30: X_INTRODUCED_174_ ::var_is_introduced :: is_defined_var;
var -32..26: X_INTRODUCED_177_ ::var_is_introduced :: is_defined_var;
var 0..26: X_INTRODUCED_178_ ::var_is_introduced :: is_defined_var;
var -26..32: X_INTRODUCED_179_ ::var_is_introduced :: is_defined_var;
var 0..32: X_INTRODUCED_180_ ::var_is_introduced :: is_defined_var;
var -41..17: X_INTRODUCED_182_ ::var_is_introduced :: is_defined_var;
var 0..17: X_INTRODUCED_183_ ::var_is_introduced :: is_defined_var;
var -17..41: X_INTRODUCED_184_ ::var_is_introduced :: is_defined_var;
var 0..41: X_INTRODUCED_185_ ::var_is_introduced :: is_defined_var;
var -41..17: X_INTRODUCED_188_ ::var_is_introduced :: is_defined_var;
var 0..17: X_INTRODUCED_189_ ::var_is_introduced :: is_defined_var;
var -17..41: X_INTRODUCED_190_ ::var_is_introduced :: is_defined_var;
var 0..41: X_INTRODUCED_191_ ::var_is_introduced :: is_defined_var;
var -30..28: X_INTRODUCED_193_ ::var_is_introduced :: is_defined_var;
var 0..28: X_INTRODUCED_194_ ::var_is_introduced :: is_defined_var;
var -30..28: X_INTRODUCED_197_ ::var_is_introduced :: is_defined_var;
var 0..28: X_INTRODUCED_198_ ::var_is_introduced :: is_defined_var;
var -28..30: X_INTRODUCED_199_ ::var_is_introduced :: is_defined_var;
var 0..30: X_INTRODUCED_200_ ::var_is_introduced :: is_defined_var;
var -44..14: X_INTRODUCED_203_ ::var_is_introduced :: is_defined_var;
var 0..14: X_INTRODUCED_204_ ::var_is_introduced :: is_defined_var;
var -14..44: X_INTRODUCED_205_ ::var_is_introduced :: is_defined_var;
var 0..44: X_INTRODUCED_206_ ::var_is_introduced :: is_defined_var;
var -49..9: X_INTRODUCED_208_ ::var_is_introduced :: is_defined_var;
var 0..9: X_INTRODUCED_209_ ::var_is_introduced :: is_defined_var;
var -9..49: X_INTRODUCED_210_ ::var_is_introduced :: is_defined_var;
var 0..49: X_INTRODUCED_211_ ::var_is_introduced :: is_defined_var;
var -43..15: X_INTRODUCED_214_ ::var_is_introduced :: is_defined_var;
var 0..15: X_INTRODUCED_215_ ::var_is_introduced :: is_defined_var;
var -15..43: X_INTRODUCED_216_ ::var_is_introduced :: is_defined_var;
var 0..43: X_INTRODUCED_217_ ::var_is_introduced :: is_defined_var;
var -51..7: X_INTRODUCED_220_ ::var_is_introduced :: is_defined_var;
var 0..7: X_INTRODUCED_221_ ::var_is_introduced :: is_defined_var;
var -7..51: X_INTRODUCED_222_ ::var_is_introduced :: is_defined_var;
var 0..51: X_INTRODUCED_223_ ::var_is_introduced :: is_defined_var;
var -44..14: X_INTRODUCED_226_ ::var_is_introduced :: is_defined_var;
var 0..14: X_INTRODUCED_227_ ::var_is_introduced :: is_defined_var;
var -14..44: X_INTRODUCED_228_ ::var_is_introduced :: is_defined_var;
var 0..44: X_INTRODUCED_229_ ::var_is_introduced :: is_defined_var;
var -50..8: X_INTRODUCED_231_ ::var_is_introduced :: is_defined_var;
var 0..8: X_INTRODUCED_232_ ::var_is_introduced :: is_defined_var;
var -58..0: X_INTRODUCED_234_ ::var_is_introduced :: is_defined_var;
var 0..58: X_INTRODUCED_236_ ::var_is_introduced :: is_defined_var;
var 0..58: X_INTRODUCED_237_ ::var_is_introduced :: is_defined_var;
array [1..32] of var int: s:: output_array([1..32]) = [X_INTRODUCED_0_,X_INTRODUCED_1_,X_INTRODUCED_2_,X_INTRODUCED_3_,X_INTRODUCED_4_,X_INTRODUCED_5_,X_INTRODUCED_6_,X_INTRODUCED_7_,X_INTRODUCED_8_,X_INTRODUCED_9_,X_INTRODUCED_10_,X_INTRODUCED_11_,X_INTRODUCED_12_,X_INTRODUCED_13_,X_INTRODUCED_14_,X_INTRODUCED_15_,X_INTRODUCED_16_,X_INTRODUCED_17_,X_INTRODUCED_18_,X_INTRODUCED_19_,X_INTRODUCED_20_,X_INTRODUCED_21_,X_INTRODUCED_22_,X_INTRODUCED_23_,X_INTRODUCED_24_,X_INTRODUCED_25_,X_INTRODUCED_26_,X_INTRODUCED_27_,X_INTRODUCED_28_,X_INTRODUCED_29_,X_INTRODUCED_30_,X_INTRODUCED_31_];
array [1..20] of var int: X_INTRODUCED_69_ ::var_is_introduced  = [X_INTRODUCED_1_,X_INTRODUCED_2_,X_INTRODUCED_3_,X_INTRODUCED_4_,X_INTRODUCED_7_,X_INTRODUCED_8_,X_INTRODUCED_9_,X_INTRODUCED_11_,X_INTRODUCED_12_,X_INTRODUCED_14_,X_INTRODUCED_16_,X_INTRODUCED_17_,X_INTRODUCED_18_,X_INTRODUCED_19_,X_INTRODUCED_21_,X_INTRODUCED_22_,X_INTRODUCED_25_,X_INTRODUCED_26_,X_INTRODUCED_27_,X_INTRODUCED_29_];
array [1..24] of var int: X_INTRODUCED_72_ ::var_is_introduced  = [X_INTRODUCED_1_,X_INTRODUCED_2_,X_INTRODUCED_5_,X_INTRODUCED_6_,X_INTRODUCED_7_,X_INTRODUCED_9_,X_INTRODUCED_10_,X_INTRODUCED_11_,X_INTRODUCED_12_,X_INTRODUCED_13_,X_INTRODUCED_14_,X_INTRODUCED_15_,X_INTRODUCED_17_,X_INTRODUCED_18_,X_INTRODUCED_19_,X_INTRODUCED_20_,X_INTRODUCED_21_,X_INTRODUCED_22_,X_INTRODUCED_23_,X_INTRODUCED_24_,X_INTRODUCED_27_,X_INTRODUCED_28_,X_INTRODUCED_29_,X_INTRODUCED_30_];
array [1..25] of var int: X_INTRODUCED_75_ ::var_is_introduced  = [X_INTRODUCED_1_,X_INTRODUCED_3_,X_INTRODUCED_4_,X_INTRODUCED_5_,X_INTRODUCED_6_,X_INTRODUCED_7_,X_INTRODUCED_8_,X_INTRODUCED_10_,X_INTRODUCED_11_,X_INTRODUCED_12_,X_INTRODUCED_13_,X_INTRODUCED_15_,X_INTRODUCED_16_,X_INTRODUCED_17_,X_INTRODUCED_18_,X_INTRODUCED_19_,X_INTRODUCED_21_,X_INTRODUCED_22_,X_INTRODUCED_23_,X_INTRODUCED_24_,X_INTRODUCED_25_,X_INTRODUCED_26_,X_INTRODUCED_27_,X_INTRODUCED_28_,X_INTRODUCED_29_];
array [1..22] of var int: X_INTRODUCED_78_ ::var_is_introduced  = [X_INTRODUCED_3_,X_INTRODUCED_4_,X_INTRODUCED_5_,X_INTRODUCED_8_,X_INTRODUCED_9_,X_INTRODUCED_11_,X_INTRODUCED_12_,X_INTRODUCED_13_,X_INTRODUCED_14_,X_INTRODUCED_18_,X_INTRODUCED_19_,X_INTRODUCED_20_,X_INTRODUCED_21_,X_INTRODUCED_22_,X_INTRODUCED_23_,X_INTRODUCED_24_,X_INTRODUCED_25_,X_INTRODUCED_26_,X_INTRODUCED_27_,X_INTRODUCED_28_,X_INTRODUCED_29_,X_INTRODUCED_30_];
array [1..54] of var int: X_INTRODUCED_241_ ::var_is_introduced  = [objective,X_INTRODUCED_84_,X_INTRODUCED_81_,X_INTRODUCED_90_,X_INTRODUCED_88_,X_INTRODUCED_94_,X_INTRODUCED_97_,X_INTRODUCED_103_,X_INTRODUCED_109_,X_INTRODUCED_107_,X_INTRODUCED_114_,X_INTRODUCED_112_,X_INTRODUCED_117_,X_INTRODUCED_122_,X_INTRODUCED_120_,X_INTRODUCED_128_,X_INTRODUCED_126_,X_INTRODUCED_131_,X_INTRODUCED_136_,X_INTRODUCED_134_,X_INTRODUCED_142_,X_INTRODUCED_140_,X_INTRODUCED_148_,X_INTRODUCED_146_,X_INTRODUCED_153_,X_INTRODUCED_151_,X_INTRODUCED_159_,X_INTRODUCED_157_,X_INTRODUCED_164_,X_INTRODUCED_162_,X_INTRODUCED_168_,X_INTRODUCED_174_,X_INTRODUCED_172_,X_INTRODUCED_180_,X_INTRODUCED_178_,X_INTRODUCED_185_,X_INTRODUCED_183_,X_INTRODUCED_191_,X_INTRODUCED_189_,X_INTRODUCED_194_,X_INTRODUCED_200_,X_INTRODUCED_198_,X_INTRODUCED_206_,X_INTRODUCED_204_,X_INTRODUCED_211_,X_INTRODUCED_209_,X_INTRODUCED_217_,X_INTRODUCED_215_,X_INTRODUCED_223_,X_INTRODUCED_221_,X_INTRODUCED_229_,X_INTRODUCED_227_,X_INTRODUCED_232_,X_INTRODUCED_237_];
constraint int_lin_le(X_INTRODUCED_33_,[X_INTRODUCED_0_,X_INTRODUCED_1_],0);
constraint int_lin_le(X_INTRODUCED_33_,[X_INTRODUCED_0_,X_INTRODUCED_2_],0);
constraint int_lin_le(X_INTRODUCED_33_,[X_INTRODUCED_0_,X_INTRODUCED_3_],0);
constraint int_lin_le(X_INTRODUCED_33_,[X_INTRODUCED_1_,X_INTRODUCED_22_],-6);
constraint int_lin_le(X_INTRODUCED_33_,[X_INTRODUCED_1_,X_INTRODUCED_28_],-6);
constraint int_lin_le(X_INTRODUCED_33_,[X_INTRODUCED_2_,X_INTRODUCED_9_],-6);
constraint int_lin_le(X_INTRODUCED_33_,[X_INTRODUCED_2_,X_INTRODUCED_12_],-6);
constraint int_lin_le(X_INTRODUCED_33_,[X_INTRODUCED_2_,X_INTRODUCED_25_],-6);
constraint int_lin_le(X_INTRODUCED_33_,[X_INTRODUCED_3_,X_INTRODUCED_4_],-9);
constraint int_lin_le(X_INTRODUCED_33_,[X_INTRODUCED_3_,X_INTRODUCED_5_],-9);
constraint int_lin_le(X_INTRODUCED_33_,[X_INTRODUCED_3_,X_INTRODUCED_6_],-9);
constraint int_lin_le(X_INTRODUCED_33_,[X_INTRODUCED_4_,X_INTRODUCED_17_],-1);
constraint int_lin_le(X_INTRODUCED_33_,[X_INTRODUCED_4_,X_INTRODUCED_19_],-1);
constraint int_lin_le(X_INTRODUCED_33_,[X_INTRODUCED_4_,X_INTRODUCED_23_],-1);
constraint int_lin_le(X_INTRODUCED_33_,[X_INTRODUCED_5_,X_INTRODUCED_10_],-5);
constraint int_lin_le(X_INTRODUCED_33_,[X_INTRODUCED_5_,X_INTRODUCED_13_],-5);
constraint int_lin_le(X_INTRODUCED_33_,[X_INTRODUCED_5_,X_INTRODUCED_22_],-5);
constraint int_lin_le(X_INTRODUCED_33_,[X_INTRODUCED_6_,X_INTRODUCED_7_],-10);
constraint int_lin_le(X_INTRODUCED_33_,[X_INTRODUCED_6_,X_INTRODUCED_8_],-10);
constraint int_lin_le(X_INTRODUCED_33_,[X_INTRODUCED_6_,X_INTRODUCED_16_],-10);
constraint int_lin_le(X_INTRODUCED_33_,[X_INTRODUCED_7_,X_INTRODUCED_11_],-2);
constraint int_lin_le(X_INTRODUCED_33_,[X_INTRODUCED_7_,X_INTRODUCED_19_],-2);
constraint int_lin_le(X_INTRODUCED_33_,[X_INTRODUCED_8_,X_INTRODUCED_15_],-6);
constraint int_lin_le(X_INTRODUCED_33_,[X_INTRODUCED_9_,X_INTRODUCED_11_],-7);
constraint int_lin_le(X_INTRODUCED_33_,[X_INTRODUCED_9_,X_INTRODUCED_14_],-7);
constraint int_lin_le(X_INTRODUCED_33_,[X_INTRODUCED_9_,X_INTRODUCED_16_],-7);
constraint int_lin_le(X_INTRODUCED_33_,[X_INTRODUCED_10_,X_INTRODUCED_14_],-1);
constraint int_lin_le(X_INTRODUCED_33_,[X_INTRODUCED_11_,X_INTRODUCED_20_],-6);
constraint int_lin_le(X_INTRODUCED_33_,[X_INTRODUCED_12_,X_INTRODUCED_21_],-1);
constraint int_lin_le(X_INTRODUCED_33_,[X_INTRODUCED_13_,X_INTRODUCED_18_],-10);
constraint int_lin_le(X_INTRODUCED_33_,[X_INTRODUCED_13_,X_INTRODUCED_26_],-10);
constraint int_lin_le(X_INTRODUCED_33_,[X_INTRODUCED_14_,X_INTRODUCED_18_],-8);
constraint int_lin_le(X_INTRODUCED_33_,[X_INTRODUCED_14_,X_INTRODUCED_19_],-8);
constraint int_lin_le(X_INTRODUCED_33_,[X_INTRODUCED_15_,X_INTRODUCED_20_],-5);
constraint int_lin_le(X_INTRODUCED_33_,[X_INTRODUCED_15_,X_INTRODUCED_24_],-5);
constraint int_lin_le(X_INTRODUCED_33_,[X_INTRODUCED_16_,X_INTRODUCED_20_],-7);
constraint int_lin_le(X_INTRODUCED_33_,[X_INTRODUCED_16_,X_INTRODUCED_26_],-7);
constraint int_lin_le(X_INTRODUCED_33_,[X_INTRODUCED_17_,X_INTRODUCED_18_],-9);
constraint int_lin_le(X_INTRODUCED_33_,[X_INTRODUCED_18_,X_INTRODUCED_21_],-5);
constraint int_lin_le(X_INTRODUCED_33_,[X_INTRODUCED_18_,X_INTRODUCED_27_],-5);
constraint int_lin_le(X_INTRODUCED_33_,[X_INTRODUCED_18_,X_INTRODUCED_30_],-5);
constraint int_lin_le(X_INTRODUCED_33_,[X_INTRODUCED_19_,X_INTRODUCED_27_],-10);
constraint int_lin_le(X_INTRODUCED_33_,[X_INTRODUCED_19_,X_INTRODUCED_29_],-10);
constraint int_lin_le(X_INTRODUCED_33_,[X_INTRODUCED_20_,X_INTRODUCED_21_],-3);
constraint int_lin_le(X_INTRODUCED_33_,[X_INTRODUCED_20_,X_INTRODUCED_22_],-3);
constraint int_lin_le(X_INTRODUCED_33_,[X_INTRODUCED_20_,X_INTRODUCED_27_],-3);
constraint int_lin_le(X_INTRODUCED_33_,[X_INTRODUCED_21_,X_INTRODUCED_29_],-5);
constraint int_lin_le(X_INTRODUCED_33_,[X_INTRODUCED_22_,X_INTRODUCED_30_],-2);
constraint int_lin_le(X_INTRODUCED_33_,[X_INTRODUCED_23_,X_INTRODUCED_25_],-4);
constraint int_lin_le(X_INTRODUCED_33_,[X_INTRODUCED_24_,X_INTRODUCED_25_],-8);
constraint int_lin_le(X_INTRODUCED_33_,[X_INTRODUCED_24_,X_INTRODUCED_26_],-8);
constraint int_lin_le(X_INTRODUCED_33_,[X_INTRODUCED_24_,X_INTRODUCED_29_],-8);
constraint int_lin_le(X_INTRODUCED_33_,[X_INTRODUCED_25_,X_INTRODUCED_30_],-2);
constraint int_lin_le(X_INTRODUCED_33_,[X_INTRODUCED_26_,X_INTRODUCED_28_],-2);
constraint int_lin_le(X_INTRODUCED_33_,[X_INTRODUCED_27_,X_INTRODUCED_28_],-6);
constraint int_lin_le(X_INTRODUCED_33_,[X_INTRODUCED_28_,X_INTRODUCED_31_],-2);
constraint int_lin_le(X_INTRODUCED_33_,[X_INTRODUCED_29_,X_INTRODUCED_31_],-10);
constraint int_lin_le(X_INTRODUCED_33_,[X_INTRODUCED_30_,X_INTRODUCED_31_],-9);
constraint array_bool_or([X_INTRODUCED_65_,X_INTRODUCED_66_],true);
constraint cumulativeChoco(X_INTRODUCED_69_,X_INTRODUCED_68_,X_INTRODUCED_67_,19);
constraint cumulativeChoco(X_INTRODUCED_72_,X_INTRODUCED_71_,X_INTRODUCED_70_,29);
constraint cumulativeChoco(X_INTRODUCED_75_,X_INTRODUCED_74_,X_INTRODUCED_73_,24);
constraint cumulativeChoco(X_INTRODUCED_78_,X_INTRODUCED_77_,X_INTRODUCED_76_,27);
constraint int_max(0,X_INTRODUCED_80_,X_INTRODUCED_81_):: defines_var(X_INTRODUCED_81_);
constraint int_max(0,X_INTRODUCED_83_,X_INTRODUCED_84_):: defines_var(X_INTRODUCED_84_);
constraint int_max(0,X_INTRODUCED_87_,X_INTRODUCED_88_):: defines_var(X_INTRODUCED_88_);
constraint int_max(0,X_INTRODUCED_89_,X_INTRODUCED_90_):: defines_var(X_INTRODUCED_90_);
constraint int_max(0,X_INTRODUCED_93_,X_INTRODUCED_94_):: defines_var(X_INTRODUCED_94_);
constraint int_max(0,X_INTRODUCED_3_,X_INTRODUCED_97_):: defines_var(X_INTRODUCED_97_);
constraint int_max(0,X_INTRODUCED_98_,0);
constraint int_max(0,X_INTRODUCED_102_,X_INTRODUCED_103_):: defines_var(X_INTRODUCED_103_);
constraint int_max(0,X_INTRODUCED_106_,X_INTRODUCED_107_):: defines_var(X_INTRODUCED_107_);
constraint int_max(0,X_INTRODUCED_108_,X_INTRODUCED_109_):: defines_var(X_INTRODUCED_109_);
constraint int_max(0,X_INTRODUCED_111_,X_INTRODUCED_112_):: defines_var(X_INTRODUCED_112_);
constraint int_max(0,X_INTRODUCED_113_,X_INTRODUCED_114_):: defines_var(X_INTRODUCED_114_);
constraint int_max(0,X_INTRODUCED_116_,X_INTRODUCED_117_):: defines_var(X_INTRODUCED_117_);
constraint int_max(0,X_INTRODUCED_119_,X_INTRODUCED_120_):: defines_var(X_INTRODUCED_120_);
constraint int_max(0,X_INTRODUCED_121_,X_INTRODUCED_122_):: defines_var(X_INTRODUCED_122_);
constraint int_max(0,X_INTRODUCED_125_,X_INTRODUCED_126_):: defines_var(X_INTRODUCED_126_);
constraint int_max(0,X_INTRODUCED_127_,X_INTRODUCED_128_):: defines_var(X_INTRODUCED_128_);
constraint int_max(0,X_INTRODUCED_130_,X_INTRODUCED_131_):: defines_var(X_INTRODUCED_131_);
constraint int_max(0,X_INTRODUCED_133_,X_INTRODUCED_134_):: defines_var(X_INTRODUCED_134_);
constraint int_max(0,X_INTRODUCED_135_,X_INTRODUCED_136_):: defines_var(X_INTRODUCED_136_);
constraint int_max(0,X_INTRODUCED_139_,X_INTRODUCED_140_):: defines_var(X_INTRODUCED_140_);
constraint int_max(0,X_INTRODUCED_141_,X_INTRODUCED_142_):: defines_var(X_INTRODUCED_142_);
constraint int_max(0,X_INTRODUCED_145_,X_INTRODUCED_146_):: defines_var(X_INTRODUCED_146_);
constraint int_max(0,X_INTRODUCED_147_,X_INTRODUCED_148_):: defines_var(X_INTRODUCED_148_);
constraint int_max(0,X_INTRODUCED_150_,X_INTRODUCED_151_):: defines_var(X_INTRODUCED_151_);
constraint int_max(0,X_INTRODUCED_152_,X_INTRODUCED_153_):: defines_var(X_INTRODUCED_153_);
constraint int_max(0,X_INTRODUCED_156_,X_INTRODUCED_157_):: defines_var(X_INTRODUCED_157_);
constraint int_max(0,X_INTRODUCED_158_,X_INTRODUCED_159_):: defines_var(X_INTRODUCED_159_);
constraint int_max(0,X_INTRODUCED_161_,X_INTRODUCED_162_):: defines_var(X_INTRODUCED_162_);
constraint int_max(0,X_INTRODUCED_163_,X_INTRODUCED_164_):: defines_var(X_INTRODUCED_164_);
constraint int_max(0,X_INTRODUCED_167_,X_INTRODUCED_168_):: defines_var(X_INTRODUCED_168_);
constraint int_max(0,X_INTRODUCED_171_,X_INTRODUCED_172_):: defines_var(X_INTRODUCED_172_);
constraint int_max(0,X_INTRODUCED_173_,X_INTRODUCED_174_):: defines_var(X_INTRODUCED_174_);
constraint int_max(0,X_INTRODUCED_177_,X_INTRODUCED_178_):: defines_var(X_INTRODUCED_178_);
constraint int_max(0,X_INTRODUCED_179_,X_INTRODUCED_180_):: defines_var(X_INTRODUCED_180_);
constraint int_max(0,X_INTRODUCED_182_,X_INTRODUCED_183_):: defines_var(X_INTRODUCED_183_);
constraint int_max(0,X_INTRODUCED_184_,X_INTRODUCED_185_):: defines_var(X_INTRODUCED_185_);
constraint int_max(0,X_INTRODUCED_188_,X_INTRODUCED_189_):: defines_var(X_INTRODUCED_189_);
constraint int_max(0,X_INTRODUCED_190_,X_INTRODUCED_191_):: defines_var(X_INTRODUCED_191_);
constraint int_max(0,X_INTRODUCED_193_,X_INTRODUCED_194_):: defines_var(X_INTRODUCED_194_);
constraint int_max(0,X_INTRODUCED_197_,X_INTRODUCED_198_):: defines_var(X_INTRODUCED_198_);
constraint int_max(0,X_INTRODUCED_199_,X_INTRODUCED_200_):: defines_var(X_INTRODUCED_200_);
constraint int_max(0,X_INTRODUCED_203_,X_INTRODUCED_204_):: defines_var(X_INTRODUCED_204_);
constraint int_max(0,X_INTRODUCED_205_,X_INTRODUCED_206_):: defines_var(X_INTRODUCED_206_);
constraint int_max(0,X_INTRODUCED_208_,X_INTRODUCED_209_):: defines_var(X_INTRODUCED_209_);
constraint int_max(0,X_INTRODUCED_210_,X_INTRODUCED_211_):: defines_var(X_INTRODUCED_211_);
constraint int_max(0,X_INTRODUCED_214_,X_INTRODUCED_215_):: defines_var(X_INTRODUCED_215_);
constraint int_max(0,X_INTRODUCED_216_,X_INTRODUCED_217_):: defines_var(X_INTRODUCED_217_);
constraint int_max(0,X_INTRODUCED_220_,X_INTRODUCED_221_):: defines_var(X_INTRODUCED_221_);
constraint int_max(0,X_INTRODUCED_222_,X_INTRODUCED_223_):: defines_var(X_INTRODUCED_223_);
constraint int_max(0,X_INTRODUCED_226_,X_INTRODUCED_227_):: defines_var(X_INTRODUCED_227_);
constraint int_max(0,X_INTRODUCED_228_,X_INTRODUCED_229_):: defines_var(X_INTRODUCED_229_);
constraint int_max(0,X_INTRODUCED_231_,X_INTRODUCED_232_):: defines_var(X_INTRODUCED_232_);
constraint int_max(0,X_INTRODUCED_234_,0);
constraint int_max(0,X_INTRODUCED_236_,X_INTRODUCED_237_):: defines_var(X_INTRODUCED_237_);
constraint int_lin_eq(X_INTRODUCED_242_,X_INTRODUCED_241_,0):: defines_var(objective);
constraint int_lin_le_reif(X_INTRODUCED_33_,[X_INTRODUCED_1_,X_INTRODUCED_27_],-6,X_INTRODUCED_65_):: defines_var(X_INTRODUCED_65_);
constraint int_lin_le_reif(X_INTRODUCED_33_,[X_INTRODUCED_27_,X_INTRODUCED_1_],-6,X_INTRODUCED_66_):: defines_var(X_INTRODUCED_66_);
constraint int_lin_eq([1,-1],[X_INTRODUCED_0_,X_INTRODUCED_80_],1):: defines_var(X_INTRODUCED_80_);
constraint int_lin_eq([-1,-1],[X_INTRODUCED_0_,X_INTRODUCED_83_],-1):: defines_var(X_INTRODUCED_83_);
constraint int_lin_eq([1,-1],[X_INTRODUCED_1_,X_INTRODUCED_87_],30):: defines_var(X_INTRODUCED_87_);
constraint int_lin_eq([-1,-1],[X_INTRODUCED_1_,X_INTRODUCED_89_],-30):: defines_var(X_INTRODUCED_89_);
constraint int_lin_eq([-1,-1],[X_INTRODUCED_2_,X_INTRODUCED_93_],-7):: defines_var(X_INTRODUCED_93_);
constraint int_lin_eq([-1,-1],[X_INTRODUCED_3_,X_INTRODUCED_98_],0):: defines_var(X_INTRODUCED_98_);
constraint int_lin_eq([1,-1],[X_INTRODUCED_4_,X_INTRODUCED_102_],17):: defines_var(X_INTRODUCED_102_);
constraint int_lin_eq([1,-1],[X_INTRODUCED_5_,X_INTRODUCED_106_],16):: defines_var(X_INTRODUCED_106_);
constraint int_lin_eq([-1,-1],[X_INTRODUCED_5_,X_INTRODUCED_108_],-16):: defines_var(X_INTRODUCED_108_);
constraint int_lin_eq([1,-1],[X_INTRODUCED_7_,X_INTRODUCED_111_],24):: defines_var(X_INTRODUCED_111_);
constraint int_lin_eq([-1,-1],[X_INTRODUCED_7_,X_INTRODUCED_113_],-24):: defines_var(X_INTRODUCED_113_);
constraint int_lin_eq([-1,-1],[X_INTRODUCED_8_,X_INTRODUCED_116_],-21):: defines_var(X_INTRODUCED_116_);
constraint int_lin_eq([1,-1],[X_INTRODUCED_9_,X_INTRODUCED_119_],8):: defines_var(X_INTRODUCED_119_);
constraint int_lin_eq([-1,-1],[X_INTRODUCED_9_,X_INTRODUCED_121_],-8):: defines_var(X_INTRODUCED_121_);
constraint int_lin_eq([1,-1],[X_INTRODUCED_10_,X_INTRODUCED_125_],16):: defines_var(X_INTRODUCED_125_);
constraint int_lin_eq([-1,-1],[X_INTRODUCED_10_,X_INTRODUCED_127_],-16):: defines_var(X_INTRODUCED_127_);
constraint int_lin_eq([-1,-1],[X_INTRODUCED_11_,X_INTRODUCED_130_],-30):: defines_var(X_INTRODUCED_130_);
constraint int_lin_eq([1,-1],[X_INTRODUCED_12_,X_INTRODUCED_133_],15):: defines_var(X_INTRODUCED_133_);
constraint int_lin_eq([-1,-1],[X_INTRODUCED_12_,X_INTRODUCED_135_],-15):: defines_var(X_INTRODUCED_135_);
constraint int_lin_eq([1,-1],[X_INTRODUCED_13_,X_INTRODUCED_139_],16):: defines_var(X_INTRODUCED_139_);
constraint int_lin_eq([-1,-1],[X_INTRODUCED_13_,X_INTRODUCED_141_],-16):: defines_var(X_INTRODUCED_141_);
constraint int_lin_eq([1,-1],[X_INTRODUCED_14_,X_INTRODUCED_145_],18):: defines_var(X_INTRODUCED_145_);
constraint int_lin_eq([-1,-1],[X_INTRODUCED_14_,X_INTRODUCED_147_],-18):: defines_var(X_INTRODUCED_147_);
constraint int_lin_eq([1,-1],[X_INTRODUCED_15_,X_INTRODUCED_150_],32):: defines_var(X_INTRODUCED_150_);
constraint int_lin_eq([-1,-1],[X_INTRODUCED_15_,X_INTRODUCED_152_],-32):: defines_var(X_INTRODUCED_152_);
constraint int_lin_eq([1,-1],[X_INTRODUCED_16_,X_INTRODUCED_156_],30):: defines_var(X_INTRODUCED_156_);
constraint int_lin_eq([-1,-1],[X_INTRODUCED_16_,X_INTRODUCED_158_],-30):: defines_var(X_INTRODUCED_158_);
constraint int_lin_eq([1,-1],[X_INTRODUCED_17_,X_INTRODUCED_161_],21):: defines_var(X_INTRODUCED_161_);
constraint int_lin_eq([-1,-1],[X_INTRODUCED_17_,X_INTRODUCED_163_],-21):: defines_var(X_INTRODUCED_163_);
constraint int_lin_eq([-1,-1],[X_INTRODUCED_18_,X_INTRODUCED_167_],-32):: defines_var(X_INTRODUCED_167_);
constraint int_lin_eq([1,-1],[X_INTRODUCED_19_,X_INTRODUCED_171_],30):: defines_var(X_INTRODUCED_171_);
constraint int_lin_eq([-1,-1],[X_INTRODUCED_19_,X_INTRODUCED_173_],-30):: defines_var(X_INTRODUCED_173_);
constraint int_lin_eq([1,-1],[X_INTRODUCED_20_,X_INTRODUCED_177_],32):: defines_var(X_INTRODUCED_177_);
constraint int_lin_eq([-1,-1],[X_INTRODUCED_20_,X_INTRODUCED_179_],-32):: defines_var(X_INTRODUCED_179_);
constraint int_lin_eq([1,-1],[X_INTRODUCED_21_,X_INTRODUCED_182_],41):: defines_var(X_INTRODUCED_182_);
constraint int_lin_eq([-1,-1],[X_INTRODUCED_21_,X_INTRODUCED_184_],-41):: defines_var(X_INTRODUCED_184_);
constraint int_lin_eq([1,-1],[X_INTRODUCED_22_,X_INTRODUCED_188_],41):: defines_var(X_INTRODUCED_188_);
constraint int_lin_eq([-1,-1],[X_INTRODUCED_22_,X_INTRODUCED_190_],-41):: defines_var(X_INTRODUCED_190_);
constraint int_lin_eq([-1,-1],[X_INTRODUCED_23_,X_INTRODUCED_193_],-28):: defines_var(X_INTRODUCED_193_);
constraint int_lin_eq([1,-1],[X_INTRODUCED_24_,X_INTRODUCED_197_],30):: defines_var(X_INTRODUCED_197_);
constraint int_lin_eq([-1,-1],[X_INTRODUCED_24_,X_INTRODUCED_199_],-30):: defines_var(X_INTRODUCED_199_);
constraint int_lin_eq([1,-1],[X_INTRODUCED_25_,X_INTRODUCED_203_],44):: defines_var(X_INTRODUCED_203_);
constraint int_lin_eq([-1,-1],[X_INTRODUCED_25_,X_INTRODUCED_205_],-44):: defines_var(X_INTRODUCED_205_);
constraint int_lin_eq([1,-1],[X_INTRODUCED_26_,X_INTRODUCED_208_],49):: defines_var(X_INTRODUCED_208_);
constraint int_lin_eq([-1,-1],[X_INTRODUCED_26_,X_INTRODUCED_210_],-49):: defines_var(X_INTRODUCED_210_);
constraint int_lin_eq([1,-1],[X_INTRODUCED_27_,X_INTRODUCED_214_],43):: defines_var(X_INTRODUCED_214_);
constraint int_lin_eq([-1,-1],[X_INTRODUCED_27_,X_INTRODUCED_216_],-43):: defines_var(X_INTRODUCED_216_);
constraint int_lin_eq([1,-1],[X_INTRODUCED_28_,X_INTRODUCED_220_],51):: defines_var(X_INTRODUCED_220_);
constraint int_lin_eq([-1,-1],[X_INTRODUCED_28_,X_INTRODUCED_222_],-51):: defines_var(X_INTRODUCED_222_);
constraint int_lin_eq([1,-1],[X_INTRODUCED_29_,X_INTRODUCED_226_],44):: defines_var(X_INTRODUCED_226_);
constraint int_lin_eq([-1,-1],[X_INTRODUCED_29_,X_INTRODUCED_228_],-44):: defines_var(X_INTRODUCED_228_);
constraint int_lin_eq([1,-1],[X_INTRODUCED_30_,X_INTRODUCED_231_],50):: defines_var(X_INTRODUCED_231_);
constraint int_lin_eq([1,-1],[X_INTRODUCED_31_,X_INTRODUCED_234_],58):: defines_var(X_INTRODUCED_234_);
constraint int_lin_eq([-1,-1],[X_INTRODUCED_31_,X_INTRODUCED_236_],-58):: defines_var(X_INTRODUCED_236_);
solve :: int_search(s,first_fail,indomain_min,complete) minimize objective;
